CapLotSizing_PM/src/Instancias/NCHSLT/6i6p4m/NBB04.OUT
 CG ITER, OVMR, OVMRUB =           1   23198.9863281   12021.2998047
 CG ITER, OVMR, OVMRUB =           2   12021.2998047   12021.2998047
 CG ITER, OVMR, OVMRUB =           3   11934.3857422   11934.3847656
 CG ITER, OVMR, OVMRUB =           4   11934.3857422   11934.3847656
 CG ITER, OVMR, OVMRUB =           5   11934.3867188   11934.3847656
 CG ITER, OVMR, OVMRUB =           6   11934.3847656   11934.3847656
 CG ITER, OVMR, OVMRUB =           7   11578.2998047   11578.2988281
 CG ITER, OVMR, OVMRUB =           8   11578.2998047   11578.2988281
 CG ITER, OVMR, OVMRUB =           9   11578.2988281   11578.2988281
 CG ITER, OVMR, OVMRUB =          10   11228.9150391   11578.2988281
 CG ITER, OVMR, OVMRUB =          11   11168.1240234   11440.3320312
 CG ITER, OVMR, OVMRUB =          12   11077.0849609   11440.3320312
 CG ITER, OVMR, OVMRUB =          13   11077.2509766   11440.3320312
 CG ITER, OVMR, OVMRUB =          14   11071.2441406   11381.7001953
 CG ITER, OVMR, OVMRUB =          15   11070.6855469   11069.3007812
 CG ITER, OVMR, OVMRUB =          16   11070.6855469   11069.3007812
OVLB =   11070.6855469 OVLUB =   11069.3007812 TIME =       0.4700000
